p tw 40 98
0 1
0 21
0 30
0 33
0 31
1 19
1 17
1 34
1 21
1 36
1 33
1 5
1 31
2 3
2 10
2 19
2 6
2 30
2 12
2 20
3 23
3 6
3 21
3 27
4 5
4 12
4 14
4 13
4 38
5 15
5 25
5 23
5 20
5 16
6 7
6 14
7 28
7 39
8 9
8 29
8 14
8 28
8 36
8 19
9 25
10 11
11 16
11 15
11 13
11 23
11 22
12 18
12 28
13 14
13 21
14 16
14 27
14 24
14 34
15 18
15 35
15 23
15 39
16 33
16 35
16 39
17 18
18 29
18 19
18 36
18 31
18 27
19 20
19 22
19 25
20 22
20 38
20 37
20 36
21 22
21 26
21 37
21 23
22 31
22 36
23 24
23 32
23 29
24 30
24 35
25 30
26 36
27 30
28 37
28 32
29 37
32 38
34 38
